30 8
3 3 7 1 8 1 7 7 
5 10 2
2 5 2
1 6 7
2 4 3
0 3 4
11 14 3
4 6 1
5 8 4
18 20 1
13 17 2
15 18 4
20 23 6
16 18 6
1 4 3
9 10 7
23 3 5
8 11 6
16 19 1
8 12 2
7 10 1
23 1 5
21 0 6
5 7 4
7 11 3
0 2 1
7 11 4
9 13 2
21 22 6
1 3 8
23 1 3
